unsat
(forall ((A (_ BitVec 17))
         (B (_ BitVec 17))
         (C (_ BitVec 17))
         (D (_ BitVec 13))
         (E (_ BitVec 13))
         (F (_ BitVec 24))
         (G (_ BitVec 32))
         (H (_ BitVec 42))
         (I (_ BitVec 17))
         (J (_ BitVec 51))
         (K (_ BitVec 17))
         (L (_ BitVec 1))
         (M (_ BitVec 1))
         (N (_ BitVec 24))
         (O (_ BitVec 1))
         (P (_ BitVec 1))
         (Q (_ BitVec 1))
         (R (_ BitVec 17))
         (S (_ BitVec 1))
         (T (_ BitVec 1))
         (U (_ BitVec 1))
         (V (_ BitVec 17))
         (W (_ BitVec 17))
         (X (_ BitVec 17))
         (Y (_ BitVec 17))
         (Z (_ BitVec 17))
         (A1 (_ BitVec 14))
         (B1 (_ BitVec 17))
         (C1 (_ BitVec 1))
         (D1 (_ BitVec 3))
         (E1 (_ BitVec 32))
         (F1 (_ BitVec 8))
         (G1 (_ BitVec 24))
         (H1 (_ BitVec 1))
         (I1 (_ BitVec 32))
         (J1 (_ BitVec 24))
         (K1 (_ BitVec 1)))
  (! (let ((a!1 (and (= ((_ extract 16 3) W) #b00000000000000)
                     (= ((_ extract 16 3) Z) #b00000000000000)
                     (or (= M #b1) (= ((_ extract 16 3) Y) #b00000000000000))
                     (or (not (= M #b1)) (not (= D1 #b001)))
                     (or (not (= M #b1))
                         (not (= U #b1))
                         (= ((_ extract 0 0) D1) #b1))
                     (= ((_ extract 16 3) X) #b00000000000000)
                     (or (not (= M #b1))
                         (= ((_ extract 16 3) Y) #b00000000000000)))))
       (= (INV!slice!1 A
                       B
                       C
                       D
                       E
                       F
                       G
                       H
                       I
                       J
                       K
                       L
                       M
                       N
                       O
                       P
                       Q
                       R
                       S
                       T
                       U
                       V
                       W
                       X
                       Y
                       Z
                       A1
                       B1
                       C1
                       D1
                       E1
                       F1
                       G1
                       H1
                       I1
                       J1
                       K1)
          a!1))
     :weight 0))
